c ind 10 13 15 16 172 25 28 39 41 43 0
c ind 45 5 53 6 69 78 9 93 0
p cnf 309 1367
-1 -2 11 0
-1 2 92 0
-100 -52 16 0
-100 52 47 0
-101 -55 16 0
-101 55 102 0
-102 -60 16 0
-102 60 103 0
-103 -64 104 0
-103 64 105 0
-104 -68 16 0
-104 68 47 0
-105 -71 16 0
-105 71 106 0
-106 -74 107 0
-106 74 108 0
-107 -77 16 0
-107 77 47 0
-108 -80 16 0
-108 80 109 0
-109 -83 16 0
-109 83 110 0
-11 -12 14 0
-11 12 17 0
-110 -86 104 0
-110 86 111 0
-111 -88 16 0
-111 88 112 0
-112 -90 107 0
-112 90 47 0
-113 -114 92 0
-113 114 132 0
-114 -22 115 0
-114 22 55 0
-115 -30 16 0
-115 30 116 0
-116 -32 117 0
-116 32 55 0
-117 -35 16 0
-117 35 118 0
-118 -47 119 0
-118 47 120 0
-119 -52 13 0
-119 52 55 0
-12 -13 9 0
-12 -9 13 0
-120 -55 16 0
-120 55 121 0
-121 -60 16 0
-121 60 122 0
-122 -64 123 0
-122 64 124 0
-123 -68 16 0
-123 68 55 0
-124 -71 16 0
-124 71 125 0
-125 -74 126 0
-125 74 127 0
-126 -77 16 0
-126 77 55 0
-127 -80 16 0
-127 80 128 0
-128 -83 16 0
-128 83 129 0
-129 -86 123 0
-129 86 130 0
-130 -88 16 0
-130 88 131 0
-131 -90 126 0
-131 90 55 0
-132 -133 92 0
-132 133 151 0
-133 -22 134 0
-133 22 60 0
-134 -30 16 0
-134 30 135 0
-135 -32 136 0
-135 32 60 0
-136 -35 16 0
-136 35 137 0
-137 -47 138 0
-137 47 139 0
-138 -52 16 0
-138 52 60 0
-139 -55 13 0
-139 55 140 0
-14 -15 16 0
-14 -16 15 0
-140 -60 16 0
-140 60 141 0
-141 -64 142 0
-141 64 143 0
-142 -68 16 0
-142 68 60 0
-143 -71 16 0
-143 71 144 0
-144 -74 145 0
-144 74 146 0
-145 -77 16 0
-145 77 60 0
-146 -80 16 0
-146 80 147 0
-147 -83 16 0
-147 83 148 0
-148 -86 142 0
-148 86 149 0
-149 -88 16 0
-149 88 150 0
-150 -90 145 0
-150 90 60 0
-151 -152 170 0
-151 152 174 0
-152 -22 153 0
-152 22 64 0
-153 -30 16 0
-153 30 154 0
-154 -32 155 0
-154 32 64 0
-155 -35 16 0
-155 35 156 0
-156 -47 157 0
-156 47 158 0
-157 -52 16 0
-157 52 64 0
-158 -55 16 0
-158 55 159 0
-159 -60 13 0
-159 60 160 0
-16 0
-160 -64 161 0
-160 64 162 0
-161 -68 16 0
-161 68 64 0
-162 -71 16 0
-162 71 163 0
-163 -74 164 0
-163 74 165 0
-164 -77 16 0
-164 77 64 0
-165 -80 16 0
-165 80 166 0
-166 -83 16 0
-166 83 167 0
-167 -86 161 0
-167 86 168 0
-168 -88 16 0
-168 88 169 0
-169 -90 164 0
-169 90 64 0
-17 -18 20 0
-17 18 92 0
-170 -171 173 0
-170 171 92 0
-171 -13 172 0
-171 -172 13 0
-173 -13 15 0
-173 -15 13 0
-174 -175 14 0
-174 175 194 0
-175 -22 176 0
-175 22 71 0
-176 -30 16 0
-176 30 177 0
-177 -32 178 0
-177 32 71 0
-178 -35 16 0
-178 35 179 0
-179 -47 180 0
-179 47 181 0
-18 19 0
-18 3 0
-180 -52 16 0
-180 52 71 0
-181 -55 16 0
-181 55 182 0
-182 -60 16 0
-182 60 183 0
-183 -64 184 0
-183 64 185 0
-184 -68 13 0
-184 68 71 0
-185 -71 16 0
-185 71 186 0
-186 -74 187 0
-186 74 188 0
-187 -77 16 0
-187 77 71 0
-188 -80 16 0
-188 80 189 0
-189 -83 16 0
-189 83 190 0
-19 -13 5 0
-19 -5 13 0
-190 -86 191 0
-190 86 192 0
-191 -68 16 0
-191 68 71 0
-192 -88 16 0
-192 88 193 0
-193 -90 187 0
-193 90 71 0
-194 -195 92 0
-194 195 213 0
-195 -22 196 0
-195 22 74 0
-196 -30 16 0
-196 30 197 0
-197 -32 198 0
-197 32 74 0
-198 -35 16 0
-198 35 199 0
-199 -47 200 0
-199 47 201 0
-2 3 7 0
-20 -21 92 0
-20 21 94 0
-200 -52 16 0
-200 52 74 0
-201 -55 16 0
-201 55 202 0
-202 -60 16 0
-202 60 203 0
-203 -64 204 0
-203 64 205 0
-204 -68 16 0
-204 68 74 0
-205 -71 13 0
-205 71 206 0
-206 -74 207 0
-206 74 208 0
-207 -77 16 0
-207 77 74 0
-208 -80 16 0
-208 80 209 0
-209 -83 16 0
-209 83 210 0
-21 -22 29 0
-21 22 35 0
-210 -86 204 0
-210 86 211 0
-211 -88 16 0
-211 88 212 0
-212 -90 207 0
-212 90 74 0
-213 -214 92 0
-213 214 233 0
-214 -22 215 0
-214 22 80 0
-215 -30 16 0
-215 30 216 0
-216 -32 217 0
-216 32 80 0
-217 -35 16 0
-217 35 218 0
-218 -47 219 0
-218 47 220 0
-219 -52 16 0
-219 52 80 0
-22 23 26 0
-220 -55 16 0
-220 55 221 0
-221 -60 16 0
-221 60 222 0
-222 -64 223 0
-222 64 224 0
-223 -68 16 0
-223 68 80 0
-224 -71 16 0
-224 71 225 0
-225 -74 226 0
-225 74 227 0
-226 -77 13 0
-226 77 80 0
-227 -80 16 0
-227 80 228 0
-228 -83 16 0
-228 83 229 0
-229 -86 223 0
-229 86 230 0
-23 -24 0
-230 -88 16 0
-230 88 231 0
-231 -90 232 0
-231 90 80 0
-232 -77 16 0
-232 77 80 0
-233 -234 92 0
-233 234 252 0
-234 -22 235 0
-234 22 83 0
-235 -30 16 0
-235 30 236 0
-236 -32 237 0
-236 32 83 0
-237 -35 16 0
-237 35 238 0
-238 -47 239 0
-238 47 240 0
-239 -52 16 0
-239 52 83 0
-24 -25 6 0
-24 -6 25 0
-240 -55 16 0
-240 55 241 0
-241 -60 16 0
-241 60 242 0
-242 -64 243 0
-242 64 244 0
-243 -68 16 0
-243 68 83 0
-244 -71 16 0
-244 71 245 0
-245 -74 246 0
-245 74 247 0
-246 -77 16 0
-246 77 83 0
-247 -80 13 0
-247 80 248 0
-248 -83 16 0
-248 83 249 0
-249 -86 243 0
-249 86 250 0
-250 -88 16 0
-250 88 251 0
-251 -90 246 0
-251 90 83 0
-252 -253 170 0
-252 253 271 0
-253 -22 254 0
-253 22 86 0
-254 -30 16 0
-254 30 255 0
-255 -32 256 0
-255 32 86 0
-256 -35 16 0
-256 35 257 0
-257 -47 258 0
-257 47 259 0
-258 -52 16 0
-258 52 86 0
-259 -55 16 0
-259 55 260 0
-26 -27 0
-260 -60 16 0
-260 60 261 0
-261 -64 262 0
-261 64 263 0
-262 -68 16 0
-262 68 86 0
-263 -71 16 0
-263 71 264 0
-264 -74 265 0
-264 74 266 0
-265 -77 16 0
-265 77 86 0
-266 -80 16 0
-266 80 267 0
-267 -83 13 0
-267 83 268 0
-268 -86 262 0
-268 86 269 0
-269 -88 16 0
-269 88 270 0
-27 -10 28 0
-27 -28 10 0
-270 -90 265 0
-270 90 86 0
-271 -272 14 0
-271 272 291 0
-272 -22 273 0
-272 22 88 0
-273 -30 16 0
-273 30 274 0
-274 -32 275 0
-274 32 88 0
-275 -35 16 0
-275 35 276 0
-276 -47 277 0
-276 47 278 0
-277 -52 16 0
-277 52 88 0
-278 -55 16 0
-278 55 279 0
-279 -60 16 0
-279 60 280 0
-280 -64 281 0
-280 64 282 0
-281 -68 16 0
-281 68 88 0
-282 -71 16 0
-282 71 283 0
-283 -74 284 0
-283 74 285 0
-284 -77 16 0
-284 77 88 0
-285 -80 16 0
-285 80 286 0
-286 -83 16 0
-286 83 287 0
-287 -86 288 0
-287 86 289 0
-288 -68 13 0
-288 68 88 0
-289 -88 16 0
-289 88 290 0
-29 -30 13 0
-29 30 31 0
-290 -90 284 0
-290 90 88 0
-291 -292 92 0
-291 292 14 0
-292 -22 293 0
-292 22 90 0
-293 -30 16 0
-293 30 294 0
-294 -32 295 0
-294 32 90 0
-295 -35 16 0
-295 35 296 0
-296 -47 297 0
-296 47 298 0
-297 -52 16 0
-297 52 90 0
-298 -55 16 0
-298 55 299 0
-299 -60 16 0
-299 60 300 0
-3 -4 0
-30 -10 13 0
-30 -13 10 0
-300 -64 301 0
-300 64 302 0
-301 -68 16 0
-301 68 90 0
-302 -71 16 0
-302 71 303 0
-303 -74 304 0
-303 74 305 0
-304 -77 16 0
-304 77 90 0
-305 -80 16 0
-305 80 306 0
-306 -83 16 0
-306 83 307 0
-307 -86 301 0
-307 86 308 0
-308 -88 13 0
-308 88 309 0
-309 -90 304 0
-309 90 90 0
-31 -32 34 0
-31 32 35 0
-32 23 0
-32 33 0
-33 -13 6 0
-33 -6 13 0
-34 -35 16 0
-34 35 46 0
-35 36 0
-35 44 0
-36 37 0
-36 42 0
-37 38 0
-37 40 0
-38 -16 39 0
-38 -39 16 0
-4 -5 6 0
-4 -6 5 0
-40 -16 41 0
-40 -41 16 0
-42 -16 43 0
-42 -43 16 0
-44 -16 45 0
-44 -45 16 0
-46 -47 51 0
-46 47 54 0
-47 44 0
-47 48 0
-48 42 0
-48 49 0
-49 40 0
-49 50 0
-50 -13 39 0
-50 -39 13 0
-51 -52 16 0
-51 52 35 0
-52 -13 53 0
-52 -53 13 0
-54 -55 16 0
-54 55 59 0
-55 44 0
-55 56 0
-56 42 0
-56 57 0
-57 38 0
-57 58 0
-58 -13 41 0
-58 -41 13 0
-59 -60 16 0
-59 60 63 0
-60 44 0
-60 61 0
-61 42 0
-61 62 0
-62 50 0
-62 58 0
-63 -64 67 0
-63 64 70 0
-64 44 0
-64 65 0
-65 37 0
-65 66 0
-66 -13 43 0
-66 -43 13 0
-67 -68 16 0
-67 68 35 0
-68 -13 69 0
-68 -69 13 0
-7 -8 0
-70 -71 16 0
-70 71 73 0
-71 44 0
-71 72 0
-72 49 0
-72 66 0
-73 -74 76 0
-73 74 79 0
-74 56 0
-74 75 0
-75 -13 45 0
-75 -45 13 0
-76 -77 16 0
-76 77 35 0
-77 -13 78 0
-77 -78 13 0
-79 -80 16 0
-79 80 82 0
-8 -10 9 0
-8 -9 10 0
-80 44 0
-80 81 0
-81 57 0
-81 66 0
-82 -83 16 0
-82 83 85 0
-83 44 0
-83 84 0
-84 62 0
-84 66 0
-85 -86 67 0
-85 86 87 0
-86 36 0
-86 75 0
-87 -88 16 0
-87 88 89 0
-88 48 0
-88 75 0
-89 -90 91 0
-89 90 35 0
-90 61 0
-90 75 0
-91 -77 13 0
-91 77 35 0
-92 -15 93 0
-92 -93 15 0
-94 -95 92 0
-94 95 113 0
-95 -22 96 0
-95 22 47 0
-96 -30 16 0
-96 30 97 0
-97 -32 98 0
-97 32 47 0
-98 -35 13 0
-98 35 99 0
-99 -47 100 0
-99 47 101 0
1 -11 -92 0
1 -2 -11 0
1 0
1 2 -92 0
100 -16 -47 0
100 -52 -16 0
100 52 -47 0
101 -16 -102 0
101 -55 -16 0
101 55 -102 0
102 -16 -103 0
102 -60 -16 0
102 60 -103 0
103 -104 -105 0
103 -64 -104 0
103 64 -105 0
104 -16 -47 0
104 -68 -16 0
104 68 -47 0
105 -16 -106 0
105 -71 -16 0
105 71 -106 0
106 -107 -108 0
106 -74 -107 0
106 74 -108 0
107 -16 -47 0
107 -77 -16 0
107 77 -47 0
108 -16 -109 0
108 -80 -16 0
108 80 -109 0
109 -16 -110 0
109 -83 -16 0
109 83 -110 0
11 -12 -14 0
11 -14 -17 0
11 12 -17 0
110 -104 -111 0
110 -86 -104 0
110 86 -111 0
111 -16 -112 0
111 -88 -16 0
111 88 -112 0
112 -107 -47 0
112 -90 -107 0
112 90 -47 0
113 -114 -92 0
113 -92 -132 0
113 114 -132 0
114 -115 -55 0
114 -22 -115 0
114 22 -55 0
115 -16 -116 0
115 -30 -16 0
115 30 -116 0
116 -117 -55 0
116 -32 -117 0
116 32 -55 0
117 -16 -118 0
117 -35 -16 0
117 35 -118 0
118 -119 -120 0
118 -47 -119 0
118 47 -120 0
119 -13 -55 0
119 -52 -13 0
119 52 -55 0
12 -9 -13 0
12 9 13 0
120 -16 -121 0
120 -55 -16 0
120 55 -121 0
121 -16 -122 0
121 -60 -16 0
121 60 -122 0
122 -123 -124 0
122 -64 -123 0
122 64 -124 0
123 -16 -55 0
123 -68 -16 0
123 68 -55 0
124 -16 -125 0
124 -71 -16 0
124 71 -125 0
125 -126 -127 0
125 -74 -126 0
125 74 -127 0
126 -16 -55 0
126 -77 -16 0
126 77 -55 0
127 -16 -128 0
127 -80 -16 0
127 80 -128 0
128 -16 -129 0
128 -83 -16 0
128 83 -129 0
129 -123 -130 0
129 -86 -123 0
129 86 -130 0
13 0
130 -16 -131 0
130 -88 -16 0
130 88 -131 0
131 -126 -55 0
131 -90 -126 0
131 90 -55 0
132 -133 -92 0
132 -92 -151 0
132 133 -151 0
133 -134 -60 0
133 -22 -134 0
133 22 -60 0
134 -16 -135 0
134 -30 -16 0
134 30 -135 0
135 -136 -60 0
135 -32 -136 0
135 32 -60 0
136 -16 -137 0
136 -35 -16 0
136 35 -137 0
137 -138 -139 0
137 -47 -138 0
137 47 -139 0
138 -16 -60 0
138 -52 -16 0
138 52 -60 0
139 -13 -140 0
139 -55 -13 0
139 55 -140 0
14 -15 -16 0
14 15 16 0
140 -16 -141 0
140 -60 -16 0
140 60 -141 0
141 -142 -143 0
141 -64 -142 0
141 64 -143 0
142 -16 -60 0
142 -68 -16 0
142 68 -60 0
143 -16 -144 0
143 -71 -16 0
143 71 -144 0
144 -145 -146 0
144 -74 -145 0
144 74 -146 0
145 -16 -60 0
145 -77 -16 0
145 77 -60 0
146 -16 -147 0
146 -80 -16 0
146 80 -147 0
147 -16 -148 0
147 -83 -16 0
147 83 -148 0
148 -142 -149 0
148 -86 -142 0
148 86 -149 0
149 -16 -150 0
149 -88 -16 0
149 88 -150 0
150 -145 -60 0
150 -90 -145 0
150 90 -60 0
151 -152 -170 0
151 -170 -174 0
151 152 -174 0
152 -153 -64 0
152 -22 -153 0
152 22 -64 0
153 -16 -154 0
153 -30 -16 0
153 30 -154 0
154 -155 -64 0
154 -32 -155 0
154 32 -64 0
155 -16 -156 0
155 -35 -16 0
155 35 -156 0
156 -157 -158 0
156 -47 -157 0
156 47 -158 0
157 -16 -64 0
157 -52 -16 0
157 52 -64 0
158 -16 -159 0
158 -55 -16 0
158 55 -159 0
159 -13 -160 0
159 -60 -13 0
159 60 -160 0
160 -161 -162 0
160 -64 -161 0
160 64 -162 0
161 -16 -64 0
161 -68 -16 0
161 68 -64 0
162 -16 -163 0
162 -71 -16 0
162 71 -163 0
163 -164 -165 0
163 -74 -164 0
163 74 -165 0
164 -16 -64 0
164 -77 -16 0
164 77 -64 0
165 -16 -166 0
165 -80 -16 0
165 80 -166 0
166 -16 -167 0
166 -83 -16 0
166 83 -167 0
167 -161 -168 0
167 -86 -161 0
167 86 -168 0
168 -16 -169 0
168 -88 -16 0
168 88 -169 0
169 -164 -64 0
169 -90 -164 0
169 90 -64 0
17 -18 -20 0
17 -20 -92 0
17 18 -92 0
170 -171 -173 0
170 -173 -92 0
170 171 -92 0
171 -172 -13 0
171 172 13 0
173 -15 -13 0
173 15 13 0
174 -14 -194 0
174 -175 -14 0
174 175 -194 0
175 -176 -71 0
175 -22 -176 0
175 22 -71 0
176 -16 -177 0
176 -30 -16 0
176 30 -177 0
177 -178 -71 0
177 -32 -178 0
177 32 -71 0
178 -16 -179 0
178 -35 -16 0
178 35 -179 0
179 -180 -181 0
179 -47 -180 0
179 47 -181 0
18 -3 -19 0
180 -16 -71 0
180 -52 -16 0
180 52 -71 0
181 -16 -182 0
181 -55 -16 0
181 55 -182 0
182 -16 -183 0
182 -60 -16 0
182 60 -183 0
183 -184 -185 0
183 -64 -184 0
183 64 -185 0
184 -13 -71 0
184 -68 -13 0
184 68 -71 0
185 -16 -186 0
185 -71 -16 0
185 71 -186 0
186 -187 -188 0
186 -74 -187 0
186 74 -188 0
187 -16 -71 0
187 -77 -16 0
187 77 -71 0
188 -16 -189 0
188 -80 -16 0
188 80 -189 0
189 -16 -190 0
189 -83 -16 0
189 83 -190 0
19 -5 -13 0
19 5 13 0
190 -191 -192 0
190 -86 -191 0
190 86 -192 0
191 -16 -71 0
191 -68 -16 0
191 68 -71 0
192 -16 -193 0
192 -88 -16 0
192 88 -193 0
193 -187 -71 0
193 -90 -187 0
193 90 -71 0
194 -195 -92 0
194 -92 -213 0
194 195 -213 0
195 -196 -74 0
195 -22 -196 0
195 22 -74 0
196 -16 -197 0
196 -30 -16 0
196 30 -197 0
197 -198 -74 0
197 -32 -198 0
197 32 -74 0
198 -16 -199 0
198 -35 -16 0
198 35 -199 0
199 -200 -201 0
199 -47 -200 0
199 47 -201 0
2 -3 0
2 -7 0
20 -21 -92 0
20 -92 -94 0
20 21 -94 0
200 -16 -74 0
200 -52 -16 0
200 52 -74 0
201 -16 -202 0
201 -55 -16 0
201 55 -202 0
202 -16 -203 0
202 -60 -16 0
202 60 -203 0
203 -204 -205 0
203 -64 -204 0
203 64 -205 0
204 -16 -74 0
204 -68 -16 0
204 68 -74 0
205 -13 -206 0
205 -71 -13 0
205 71 -206 0
206 -207 -208 0
206 -74 -207 0
206 74 -208 0
207 -16 -74 0
207 -77 -16 0
207 77 -74 0
208 -16 -209 0
208 -80 -16 0
208 80 -209 0
209 -16 -210 0
209 -83 -16 0
209 83 -210 0
21 -22 -29 0
21 -29 -35 0
21 22 -35 0
210 -204 -211 0
210 -86 -204 0
210 86 -211 0
211 -16 -212 0
211 -88 -16 0
211 88 -212 0
212 -207 -74 0
212 -90 -207 0
212 90 -74 0
213 -214 -92 0
213 -92 -233 0
213 214 -233 0
214 -215 -80 0
214 -22 -215 0
214 22 -80 0
215 -16 -216 0
215 -30 -16 0
215 30 -216 0
216 -217 -80 0
216 -32 -217 0
216 32 -80 0
217 -16 -218 0
217 -35 -16 0
217 35 -218 0
218 -219 -220 0
218 -47 -219 0
218 47 -220 0
219 -16 -80 0
219 -52 -16 0
219 52 -80 0
22 -23 0
22 -26 0
220 -16 -221 0
220 -55 -16 0
220 55 -221 0
221 -16 -222 0
221 -60 -16 0
221 60 -222 0
222 -223 -224 0
222 -64 -223 0
222 64 -224 0
223 -16 -80 0
223 -68 -16 0
223 68 -80 0
224 -16 -225 0
224 -71 -16 0
224 71 -225 0
225 -226 -227 0
225 -74 -226 0
225 74 -227 0
226 -13 -80 0
226 -77 -13 0
226 77 -80 0
227 -16 -228 0
227 -80 -16 0
227 80 -228 0
228 -16 -229 0
228 -83 -16 0
228 83 -229 0
229 -223 -230 0
229 -86 -223 0
229 86 -230 0
23 24 0
230 -16 -231 0
230 -88 -16 0
230 88 -231 0
231 -232 -80 0
231 -90 -232 0
231 90 -80 0
232 -16 -80 0
232 -77 -16 0
232 77 -80 0
233 -234 -92 0
233 -92 -252 0
233 234 -252 0
234 -22 -235 0
234 -235 -83 0
234 22 -83 0
235 -16 -236 0
235 -30 -16 0
235 30 -236 0
236 -237 -83 0
236 -32 -237 0
236 32 -83 0
237 -16 -238 0
237 -35 -16 0
237 35 -238 0
238 -239 -240 0
238 -47 -239 0
238 47 -240 0
239 -16 -83 0
239 -52 -16 0
239 52 -83 0
24 -6 -25 0
24 6 25 0
240 -16 -241 0
240 -55 -16 0
240 55 -241 0
241 -16 -242 0
241 -60 -16 0
241 60 -242 0
242 -243 -244 0
242 -64 -243 0
242 64 -244 0
243 -16 -83 0
243 -68 -16 0
243 68 -83 0
244 -16 -245 0
244 -71 -16 0
244 71 -245 0
245 -246 -247 0
245 -74 -246 0
245 74 -247 0
246 -16 -83 0
246 -77 -16 0
246 77 -83 0
247 -13 -248 0
247 -80 -13 0
247 80 -248 0
248 -16 -249 0
248 -83 -16 0
248 83 -249 0
249 -243 -250 0
249 -86 -243 0
249 86 -250 0
250 -16 -251 0
250 -88 -16 0
250 88 -251 0
251 -246 -83 0
251 -90 -246 0
251 90 -83 0
252 -170 -271 0
252 -253 -170 0
252 253 -271 0
253 -22 -254 0
253 -254 -86 0
253 22 -86 0
254 -16 -255 0
254 -30 -16 0
254 30 -255 0
255 -256 -86 0
255 -32 -256 0
255 32 -86 0
256 -16 -257 0
256 -35 -16 0
256 35 -257 0
257 -258 -259 0
257 -47 -258 0
257 47 -259 0
258 -16 -86 0
258 -52 -16 0
258 52 -86 0
259 -16 -260 0
259 -55 -16 0
259 55 -260 0
26 27 0
260 -16 -261 0
260 -60 -16 0
260 60 -261 0
261 -262 -263 0
261 -64 -262 0
261 64 -263 0
262 -16 -86 0
262 -68 -16 0
262 68 -86 0
263 -16 -264 0
263 -71 -16 0
263 71 -264 0
264 -265 -266 0
264 -74 -265 0
264 74 -266 0
265 -16 -86 0
265 -77 -16 0
265 77 -86 0
266 -16 -267 0
266 -80 -16 0
266 80 -267 0
267 -13 -268 0
267 -83 -13 0
267 83 -268 0
268 -262 -269 0
268 -86 -262 0
268 86 -269 0
269 -16 -270 0
269 -88 -16 0
269 88 -270 0
27 -10 -28 0
27 10 28 0
270 -265 -86 0
270 -90 -265 0
270 90 -86 0
271 -14 -291 0
271 -272 -14 0
271 272 -291 0
272 -22 -273 0
272 -273 -88 0
272 22 -88 0
273 -16 -274 0
273 -30 -16 0
273 30 -274 0
274 -275 -88 0
274 -32 -275 0
274 32 -88 0
275 -16 -276 0
275 -35 -16 0
275 35 -276 0
276 -277 -278 0
276 -47 -277 0
276 47 -278 0
277 -16 -88 0
277 -52 -16 0
277 52 -88 0
278 -16 -279 0
278 -55 -16 0
278 55 -279 0
279 -16 -280 0
279 -60 -16 0
279 60 -280 0
280 -281 -282 0
280 -64 -281 0
280 64 -282 0
281 -16 -88 0
281 -68 -16 0
281 68 -88 0
282 -16 -283 0
282 -71 -16 0
282 71 -283 0
283 -284 -285 0
283 -74 -284 0
283 74 -285 0
284 -16 -88 0
284 -77 -16 0
284 77 -88 0
285 -16 -286 0
285 -80 -16 0
285 80 -286 0
286 -16 -287 0
286 -83 -16 0
286 83 -287 0
287 -288 -289 0
287 -86 -288 0
287 86 -289 0
288 -13 -88 0
288 -68 -13 0
288 68 -88 0
289 -16 -290 0
289 -88 -16 0
289 88 -290 0
29 -13 -31 0
29 -30 -13 0
29 30 -31 0
290 -284 -88 0
290 -90 -284 0
290 90 -88 0
291 -292 -92 0
291 -92 -14 0
291 292 -14 0
292 -22 -293 0
292 -293 -90 0
292 22 -90 0
293 -16 -294 0
293 -30 -16 0
293 30 -294 0
294 -295 -90 0
294 -32 -295 0
294 32 -90 0
295 -16 -296 0
295 -35 -16 0
295 35 -296 0
296 -297 -298 0
296 -47 -297 0
296 47 -298 0
297 -16 -90 0
297 -52 -16 0
297 52 -90 0
298 -16 -299 0
298 -55 -16 0
298 55 -299 0
299 -16 -300 0
299 -60 -16 0
299 60 -300 0
3 4 0
30 -10 -13 0
30 10 13 0
300 -301 -302 0
300 -64 -301 0
300 64 -302 0
301 -16 -90 0
301 -68 -16 0
301 68 -90 0
302 -16 -303 0
302 -71 -16 0
302 71 -303 0
303 -304 -305 0
303 -74 -304 0
303 74 -305 0
304 -16 -90 0
304 -77 -16 0
304 77 -90 0
305 -16 -306 0
305 -80 -16 0
305 80 -306 0
306 -16 -307 0
306 -83 -16 0
306 83 -307 0
307 -301 -308 0
307 -86 -301 0
307 86 -308 0
308 -13 -309 0
308 -88 -13 0
308 88 -309 0
309 -304 -90 0
309 -90 -304 0
309 90 -90 0
31 -32 -34 0
31 -34 -35 0
31 32 -35 0
32 -23 -33 0
33 -6 -13 0
33 6 13 0
34 -16 -46 0
34 -35 -16 0
34 35 -46 0
35 -36 -44 0
36 -37 -42 0
37 -38 -40 0
38 -39 -16 0
38 39 16 0
4 -5 -6 0
4 5 6 0
40 -41 -16 0
40 41 16 0
42 -43 -16 0
42 43 16 0
44 -45 -16 0
44 45 16 0
46 -47 -51 0
46 -51 -54 0
46 47 -54 0
47 -48 -44 0
48 -49 -42 0
49 -50 -40 0
50 -39 -13 0
50 39 13 0
51 -16 -35 0
51 -52 -16 0
51 52 -35 0
52 -53 -13 0
52 53 13 0
54 -16 -59 0
54 -55 -16 0
54 55 -59 0
55 -56 -44 0
56 -57 -42 0
57 -38 -58 0
58 -41 -13 0
58 41 13 0
59 -16 -63 0
59 -60 -16 0
59 60 -63 0
60 -61 -44 0
61 -62 -42 0
62 -50 -58 0
63 -64 -67 0
63 -67 -70 0
63 64 -70 0
64 -65 -44 0
65 -37 -66 0
66 -43 -13 0
66 43 13 0
67 -16 -35 0
67 -68 -16 0
67 68 -35 0
68 -69 -13 0
68 69 13 0
7 8 0
70 -16 -73 0
70 -71 -16 0
70 71 -73 0
71 -72 -44 0
72 -49 -66 0
73 -74 -76 0
73 -76 -79 0
73 74 -79 0
74 -56 -75 0
75 -45 -13 0
75 45 13 0
76 -16 -35 0
76 -77 -16 0
76 77 -35 0
77 -78 -13 0
77 78 13 0
79 -16 -82 0
79 -80 -16 0
79 80 -82 0
8 -9 -10 0
8 9 10 0
80 -81 -44 0
81 -57 -66 0
82 -16 -85 0
82 -83 -16 0
82 83 -85 0
83 -84 -44 0
84 -62 -66 0
85 -67 -87 0
85 -86 -67 0
85 86 -87 0
86 -36 -75 0
87 -16 -89 0
87 -88 -16 0
87 88 -89 0
88 -48 -75 0
89 -90 -91 0
89 -91 -35 0
89 90 -35 0
90 -61 -75 0
91 -13 -35 0
91 -77 -13 0
91 77 -35 0
92 -15 -93 0
92 15 93 0
94 -92 -113 0
94 -95 -92 0
94 95 -113 0
95 -22 -96 0
95 -96 -47 0
95 22 -47 0
96 -16 -97 0
96 -30 -16 0
96 30 -97 0
97 -32 -98 0
97 -98 -47 0
97 32 -47 0
98 -13 -99 0
98 -35 -13 0
98 35 -99 0
99 -100 -101 0
99 -47 -100 0
99 47 -101 0
